c "278167.clq"
p edge 247 3696
e 1 17
e 1 18
e 1 19
e 1 20
e 1 25
e 1 27
e 1 29
e 1 34
e 1 36
e 1 41
e 1 47
e 1 55
e 1 56
e 1 57
e 1 63
e 1 75
e 1 78
e 1 79
e 1 87
e 1 88
e 1 90
e 1 118
e 1 119
e 1 123
e 1 132
e 1 135
e 1 151
e 1 168
e 1 174
e 1 195
e 1 212
e 1 216
e 1 225
e 1 231
e 1 244
e 1 247
e 2 17
e 2 18
e 2 19
e 2 20
e 2 21
e 2 22
e 2 23
e 2 24
e 2 25
e 2 27
e 2 28
e 2 30
e 2 31
e 2 32
e 2 33
e 2 36
e 2 39
e 2 40
e 2 42
e 2 43
e 2 45
e 2 46
e 2 47
e 2 49
e 2 52
e 2 55
e 2 58
e 2 60
e 2 69
e 2 71
e 2 72
e 2 73
e 2 90
e 2 91
e 2 99
e 2 107
e 2 112
e 2 114
e 2 119
e 2 123
e 2 126
e 2 130
e 2 136
e 2 137
e 2 142
e 2 145
e 2 153
e 2 157
e 2 163
e 2 169
e 2 172
e 2 178
e 2 181
e 2 187
e 2 189
e 2 199
e 2 201
e 2 209
e 2 213
e 2 220
e 2 226
e 2 227
e 2 235
e 2 244
e 2 246
e 3 17
e 3 18
e 3 19
e 3 21
e 3 22
e 3 24
e 3 25
e 3 30
e 3 31
e 3 32
e 3 35
e 3 38
e 3 46
e 3 50
e 3 68
e 3 73
e 3 82
e 3 83
e 3 85
e 3 89
e 3 90
e 3 92
e 3 105
e 3 107
e 3 110
e 3 111
e 3 112
e 3 113
e 3 120
e 3 133
e 3 140
e 3 142
e 3 151
e 3 174
e 3 188
e 3 203
e 3 217
e 3 224
e 3 235
e 3 247
e 4 17
e 4 18
e 4 19
e 4 20
e 4 21
e 4 23
e 4 24
e 4 26
e 4 27
e 4 32
e 4 37
e 4 38
e 4 41
e 4 47
e 4 48
e 4 51
e 4 58
e 4 60
e 4 61
e 4 64
e 4 69
e 4 70
e 4 72
e 4 74
e 4 75
e 4 76
e 4 80
e 4 93
e 4 99
e 4 106
e 4 120
e 4 139
e 4 142
e 4 147
e 4 156
e 4 163
e 4 168
e 4 190
e 4 201
e 4 214
e 4 218
e 4 220
e 4 222
e 4 226
e 5 17
e 5 18
e 5 19
e 5 20
e 5 22
e 5 23
e 5 24
e 5 35
e 5 38
e 5 39
e 5 40
e 5 41
e 5 42
e 5 43
e 5 46
e 5 49
e 5 50
e 5 80
e 5 81
e 5 86
e 5 89
e 5 90
e 5 106
e 5 113
e 5 123
e 5 138
e 5 152
e 5 166
e 5 170
e 5 178
e 5 190
e 5 192
e 5 194
e 5 215
e 5 228
e 5 244
e 6 17
e 6 18
e 6 19
e 6 20
e 6 21
e 6 22
e 6 23
e 6 24
e 6 26
e 6 27
e 6 28
e 6 32
e 6 35
e 6 37
e 6 39
e 6 40
e 6 41
e 6 46
e 6 47
e 6 57
e 6 59
e 6 60
e 6 61
e 6 62
e 6 88
e 6 91
e 6 94
e 6 118
e 6 126
e 6 137
e 6 141
e 6 155
e 6 165
e 6 172
e 6 207
e 6 212
e 6 216
e 6 217
e 6 219
e 6 225
e 6 230
e 6 231
e 7 17
e 7 18
e 7 19
e 7 20
e 7 21
e 7 22
e 7 23
e 7 26
e 7 27
e 7 28
e 7 29
e 7 31
e 7 32
e 7 34
e 7 35
e 7 41
e 7 44
e 7 60
e 7 61
e 7 63
e 7 82
e 7 84
e 7 85
e 7 90
e 7 93
e 7 103
e 7 115
e 7 127
e 7 150
e 7 152
e 7 155
e 7 160
e 7 165
e 7 167
e 7 169
e 7 174
e 7 182
e 7 183
e 7 186
e 7 196
e 7 207
e 7 237
e 7 242
e 8 17
e 8 18
e 8 19
e 8 20
e 8 21
e 8 22
e 8 23
e 8 24
e 8 25
e 8 26
e 8 32
e 8 33
e 8 34
e 8 38
e 8 40
e 8 42
e 8 45
e 8 47
e 8 51
e 8 52
e 8 60
e 8 69
e 8 73
e 8 78
e 8 87
e 8 93
e 8 116
e 8 128
e 8 130
e 8 174
e 8 184
e 8 195
e 8 207
e 8 216
e 8 219
e 8 225
e 8 237
e 8 242
e 9 17
e 9 52
e 10 17
e 10 18
e 10 19
e 10 20
e 10 21
e 10 22
e 10 23
e 10 25
e 10 26
e 10 28
e 10 29
e 10 30
e 10 33
e 10 34
e 10 35
e 10 38
e 10 42
e 10 44
e 10 45
e 10 47
e 10 52
e 10 60
e 10 68
e 10 73
e 10 87
e 10 88
e 10 89
e 10 94
e 10 96
e 10 97
e 10 98
e 10 105
e 10 111
e 10 113
e 10 126
e 10 129
e 10 146
e 10 152
e 10 161
e 10 179
e 10 186
e 10 188
e 10 195
e 10 209
e 10 210
e 10 214
e 10 233
e 11 17
e 11 18
e 11 19
e 11 20
e 11 21
e 11 22
e 11 26
e 11 28
e 11 32
e 11 39
e 11 42
e 11 84
e 11 96
e 11 98
e 11 100
e 11 109
e 11 115
e 11 118
e 11 136
e 11 162
e 11 163
e 11 186
e 11 195
e 12 17
e 12 18
e 12 20
e 12 21
e 12 22
e 12 26
e 12 27
e 12 30
e 12 35
e 12 38
e 12 40
e 12 42
e 12 50
e 12 51
e 12 53
e 12 54
e 12 55
e 12 56
e 12 57
e 12 62
e 12 64
e 12 67
e 12 72
e 12 73
e 12 74
e 12 76
e 12 77
e 12 91
e 12 101
e 12 106
e 12 109
e 12 117
e 12 121
e 12 122
e 12 126
e 12 129
e 12 130
e 12 143
e 12 148
e 12 166
e 12 175
e 12 192
e 12 199
e 12 205
e 12 208
e 12 212
e 12 219
e 12 227
e 12 233
e 12 246
e 12 247
e 13 17
e 13 18
e 13 19
e 13 20
e 13 21
e 13 23
e 13 24
e 13 25
e 13 29
e 13 31
e 13 33
e 13 34
e 13 48
e 13 49
e 13 60
e 13 63
e 13 100
e 13 132
e 13 140
e 13 150
e 13 163
e 13 208
e 13 212
e 14 17
e 14 18
e 14 19
e 14 20
e 14 23
e 14 24
e 14 27
e 14 29
e 14 30
e 14 32
e 14 37
e 14 39
e 14 41
e 14 42
e 14 46
e 14 47
e 14 55
e 14 71
e 14 73
e 14 75
e 14 78
e 14 81
e 14 82
e 14 95
e 14 97
e 14 100
e 14 106
e 14 113
e 14 119
e 14 134
e 14 157
e 14 160
e 14 170
e 14 202
e 14 206
e 14 214
e 14 218
e 14 222
e 14 224
e 14 227
e 14 240
e 14 246
e 15 17
e 15 18
e 15 19
e 15 20
e 15 21
e 15 22
e 15 24
e 15 25
e 15 26
e 15 27
e 15 28
e 15 29
e 15 31
e 15 33
e 15 34
e 15 35
e 15 38
e 15 39
e 15 44
e 15 45
e 15 46
e 15 49
e 15 52
e 15 57
e 15 58
e 15 60
e 15 61
e 15 63
e 15 64
e 15 66
e 15 71
e 15 74
e 15 76
e 15 81
e 15 85
e 15 92
e 15 93
e 15 94
e 15 107
e 15 110
e 15 114
e 15 118
e 15 119
e 15 120
e 15 129
e 15 131
e 15 133
e 15 139
e 15 143
e 15 146
e 15 155
e 15 156
e 15 158
e 15 163
e 15 175
e 15 181
e 15 188
e 15 190
e 15 207
e 15 209
e 15 211
e 15 221
e 15 227
e 15 228
e 15 236
e 15 240
e 15 241
e 16 17
e 16 18
e 16 19
e 16 21
e 16 22
e 16 23
e 16 24
e 16 25
e 16 26
e 16 27
e 16 28
e 16 29
e 16 30
e 16 31
e 16 34
e 16 36
e 16 40
e 16 43
e 16 50
e 16 64
e 16 69
e 16 70
e 16 71
e 16 74
e 16 75
e 16 79
e 16 93
e 16 96
e 16 98
e 16 99
e 16 100
e 16 118
e 16 119
e 16 124
e 16 126
e 16 128
e 16 131
e 16 147
e 16 169
e 16 173
e 16 175
e 16 184
e 16 186
e 16 188
e 16 189
e 16 203
e 16 211
e 16 217
e 16 233
e 16 237
e 17 18
e 17 19
e 17 20
e 17 21
e 17 22
e 17 23
e 17 24
e 17 25
e 17 26
e 17 27
e 17 28
e 17 29
e 17 30
e 17 31
e 17 32
e 17 34
e 17 35
e 17 36
e 17 37
e 17 39
e 17 40
e 17 41
e 17 42
e 17 43
e 17 44
e 17 45
e 17 48
e 17 49
e 17 50
e 17 51
e 17 54
e 17 57
e 17 58
e 17 61
e 17 62
e 17 64
e 17 72
e 17 75
e 17 76
e 17 78
e 17 81
e 17 82
e 17 83
e 17 86
e 17 87
e 17 89
e 17 90
e 17 91
e 17 93
e 17 94
e 17 97
e 17 98
e 17 100
e 17 108
e 17 111
e 17 115
e 17 119
e 17 123
e 17 125
e 17 127
e 17 131
e 17 132
e 17 133
e 17 135
e 17 136
e 17 140
e 17 141
e 17 144
e 17 145
e 17 146
e 17 147
e 17 149
e 17 150
e 17 154
e 17 158
e 17 161
e 17 167
e 17 169
e 17 172
e 17 176
e 17 184
e 17 186
e 17 189
e 17 195
e 17 196
e 17 199
e 17 203
e 17 204
e 17 207
e 17 211
e 17 218
e 17 220
e 17 227
e 17 229
e 17 231
e 17 244
e 17 246
e 18 19
e 18 20
e 18 21
e 18 22
e 18 23
e 18 24
e 18 25
e 18 26
e 18 27
e 18 28
e 18 29
e 18 30
e 18 31
e 18 32
e 18 33
e 18 34
e 18 35
e 18 36
e 18 37
e 18 38
e 18 39
e 18 40
e 18 41
e 18 43
e 18 44
e 18 51
e 18 58
e 18 59
e 18 63
e 18 65
e 18 66
e 18 72
e 18 78
e 18 80
e 18 81
e 18 82
e 18 84
e 18 97
e 18 98
e 18 102
e 18 103
e 18 104
e 18 107
e 18 110
e 18 112
e 18 114
e 18 115
e 18 116
e 18 117
e 18 121
e 18 125
e 18 129
e 18 135
e 18 137
e 18 140
e 18 143
e 18 144
e 18 146
e 18 147
e 18 154
e 18 160
e 18 163
e 18 171
e 18 179
e 18 185
e 18 186
e 18 189
e 18 190
e 18 192
e 18 199
e 18 218
e 18 228
e 18 232
e 18 234
e 18 237
e 18 241
e 18 244
e 18 247
e 19 20
e 19 21
e 19 22
e 19 23
e 19 25
e 19 26
e 19 28
e 19 29
e 19 30
e 19 31
e 19 34
e 19 35
e 19 36
e 19 37
e 19 43
e 19 45
e 19 46
e 19 47
e 19 49
e 19 50
e 19 51
e 19 54
e 19 56
e 19 57
e 19 59
e 19 60
e 19 61
e 19 62
e 19 65
e 19 69
e 19 72
e 19 73
e 19 75
e 19 77
e 19 79
e 19 80
e 19 83
e 19 86
e 19 87
e 19 89
e 19 90
e 19 91
e 19 92
e 19 93
e 19 96
e 19 98
e 19 108
e 19 109
e 19 114
e 19 121
e 19 122
e 19 128
e 19 130
e 19 131
e 19 134
e 19 139
e 19 141
e 19 146
e 19 157
e 19 158
e 19 159
e 19 161
e 19 163
e 19 164
e 19 168
e 19 170
e 19 172
e 19 181
e 19 183
e 19 186
e 19 187
e 19 190
e 19 193
e 19 194
e 19 197
e 19 199
e 19 202
e 19 205
e 19 214
e 19 222
e 19 224
e 19 228
e 19 236
e 19 241
e 19 245
e 20 21
e 20 22
e 20 23
e 20 24
e 20 25
e 20 26
e 20 28
e 20 30
e 20 31
e 20 33
e 20 37
e 20 38
e 20 40
e 20 41
e 20 44
e 20 45
e 20 49
e 20 51
e 20 52
e 20 53
e 20 54
e 20 60
e 20 68
e 20 70
e 20 72
e 20 73
e 20 78
e 20 81
e 20 85
e 20 92
e 20 93
e 20 100
e 20 103
e 20 118
e 20 119
e 20 125
e 20 128
e 20 131
e 20 132
e 20 136
e 20 150
e 20 161
e 20 170
e 20 175
e 20 177
e 20 185
e 20 189
e 20 192
e 20 193
e 20 194
e 20 203
e 20 205
e 20 209
e 20 211
e 20 216
e 20 222
e 20 224
e 20 229
e 20 230
e 20 237
e 20 242
e 21 22
e 21 23
e 21 24
e 21 25
e 21 26
e 21 27
e 21 29
e 21 30
e 21 31
e 21 32
e 21 33
e 21 36
e 21 37
e 21 42
e 21 43
e 21 44
e 21 45
e 21 46
e 21 48
e 21 50
e 21 59
e 21 61
e 21 62
e 21 64
e 21 66
e 21 68
e 21 70
e 21 75
e 21 83
e 21 86
e 21 89
e 21 95
e 21 97
e 21 108
e 21 111
e 21 113
e 21 116
e 21 119
e 21 121
e 21 123
e 21 128
e 21 136
e 21 140
e 21 141
e 21 143
e 21 144
e 21 145
e 21 146
e 21 147
e 21 155
e 21 158
e 21 159
e 21 162
e 21 164
e 21 169
e 21 176
e 21 187
e 21 196
e 21 206
e 21 210
e 21 211
e 21 215
e 21 218
e 21 244
e 21 246
e 22 23
e 22 24
e 22 25
e 22 27
e 22 28
e 22 29
e 22 30
e 22 31
e 22 33
e 22 34
e 22 35
e 22 37
e 22 39
e 22 40
e 22 41
e 22 42
e 22 43
e 22 44
e 22 46
e 22 47
e 22 48
e 22 50
e 22 52
e 22 54
e 22 56
e 22 57
e 22 59
e 22 62
e 22 64
e 22 65
e 22 66
e 22 68
e 22 70
e 22 74
e 22 77
e 22 79
e 22 80
e 22 82
e 22 84
e 22 86
e 22 87
e 22 88
e 22 93
e 22 95
e 22 100
e 22 101
e 22 105
e 22 106
e 22 110
e 22 111
e 22 112
e 22 113
e 22 115
e 22 116
e 22 117
e 22 119
e 22 122
e 22 129
e 22 136
e 22 139
e 22 145
e 22 153
e 22 156
e 22 158
e 22 159
e 22 162
e 22 167
e 22 171
e 22 178
e 22 180
e 22 182
e 22 189
e 22 190
e 22 194
e 22 204
e 22 206
e 22 208
e 22 221
e 22 226
e 22 230
e 22 235
e 22 236
e 22 238
e 22 239
e 22 244
e 22 245
e 23 24
e 23 25
e 23 29
e 23 30
e 23 31
e 23 33
e 23 36
e 23 37
e 23 40
e 23 42
e 23 45
e 23 48
e 23 49
e 23 52
e 23 53
e 23 55
e 23 56
e 23 57
e 23 62
e 23 63
e 23 65
e 23 67
e 23 68
e 23 71
e 23 73
e 23 74
e 23 76
e 23 77
e 23 82
e 23 83
e 23 84
e 23 90
e 23 105
e 23 106
e 23 109
e 23 110
e 23 114
e 23 115
e 23 117
e 23 121
e 23 122
e 23 126
e 23 128
e 23 137
e 23 138
e 23 139
e 23 142
e 23 144
e 23 147
e 23 149
e 23 155
e 23 158
e 23 164
e 23 172
e 23 183
e 23 185
e 23 187
e 23 192
e 23 194
e 23 195
e 23 204
e 23 205
e 23 209
e 23 222
e 23 223
e 23 224
e 23 229
e 23 245
e 23 246
e 24 25
e 24 26
e 24 27
e 24 28
e 24 29
e 24 30
e 24 31
e 24 32
e 24 33
e 24 35
e 24 36
e 24 37
e 24 38
e 24 39
e 24 40
e 24 41
e 24 42
e 24 43
e 24 45
e 24 46
e 24 47
e 24 49
e 24 51
e 24 52
e 24 53
e 24 54
e 24 55
e 24 57
e 24 58
e 24 60
e 24 62
e 24 63
e 24 68
e 24 69
e 24 76
e 24 86
e 24 87
e 24 90
e 24 94
e 24 96
e 24 110
e 24 112
e 24 113
e 24 128
e 24 130
e 24 140
e 24 141
e 24 142
e 24 157
e 24 164
e 24 169
e 24 174
e 24 178
e 24 179
e 24 190
e 24 192
e 24 211
e 24 213
e 24 218
e 24 229
e 24 234
e 24 236
e 24 237
e 24 240
e 24 244
e 24 245
e 24 246
e 25 26
e 25 27
e 25 28
e 25 29
e 25 30
e 25 31
e 25 36
e 25 39
e 25 40
e 25 43
e 25 45
e 25 46
e 25 47
e 25 48
e 25 51
e 25 53
e 25 58
e 25 61
e 25 64
e 25 66
e 25 68
e 25 69
e 25 78
e 25 79
e 25 83
e 25 84
e 25 85
e 25 87
e 25 93
e 25 101
e 25 102
e 25 103
e 25 107
e 25 113
e 25 114
e 25 121
e 25 125
e 25 129
e 25 130
e 25 134
e 25 136
e 25 138
e 25 148
e 25 156
e 25 164
e 25 175
e 25 182
e 25 185
e 25 196
e 25 200
e 25 202
e 25 206
e 25 207
e 25 216
e 25 223
e 25 227
e 25 242
e 26 27
e 26 28
e 26 32
e 26 33
e 26 34
e 26 35
e 26 36
e 26 37
e 26 38
e 26 42
e 26 45
e 26 47
e 26 52
e 26 54
e 26 56
e 26 57
e 26 58
e 26 59
e 26 60
e 26 61
e 26 62
e 26 63
e 26 66
e 26 67
e 26 70
e 26 72
e 26 76
e 26 83
e 26 85
e 26 91
e 26 97
e 26 101
e 26 111
e 26 115
e 26 119
e 26 122
e 26 123
e 26 128
e 26 130
e 26 132
e 26 133
e 26 136
e 26 139
e 26 140
e 26 141
e 26 143
e 26 150
e 26 160
e 26 163
e 26 169
e 26 187
e 26 190
e 26 200
e 26 203
e 26 204
e 26 205
e 26 210
e 26 212
e 26 214
e 26 220
e 26 224
e 26 230
e 26 234
e 26 235
e 26 237
e 26 238
e 26 245
e 27 28
e 27 30
e 27 31
e 27 32
e 27 33
e 27 35
e 27 37
e 27 38
e 27 41
e 27 45
e 27 47
e 27 48
e 27 49
e 27 54
e 27 56
e 27 57
e 27 58
e 27 63
e 27 67
e 27 77
e 27 80
e 27 83
e 27 90
e 27 93
e 27 99
e 27 104
e 27 105
e 27 107
e 27 108
e 27 110
e 27 117
e 27 125
e 27 126
e 27 132
e 27 140
e 27 146
e 27 153
e 27 165
e 27 167
e 27 171
e 27 174
e 27 175
e 27 199
e 27 202
e 27 204
e 27 205
e 27 212
e 27 215
e 27 229
e 27 233
e 27 240
e 27 244
e 27 245
e 28 29
e 28 34
e 28 38
e 28 40
e 28 41
e 28 43
e 28 44
e 28 49
e 28 50
e 28 51
e 28 54
e 28 55
e 28 56
e 28 58
e 28 59
e 28 63
e 28 65
e 28 67
e 28 69
e 28 70
e 28 71
e 28 72
e 28 74
e 28 76
e 28 78
e 28 79
e 28 89
e 28 92
e 28 96
e 28 99
e 28 105
e 28 109
e 28 110
e 28 114
e 28 127
e 28 130
e 28 132
e 28 148
e 28 163
e 28 167
e 28 175
e 28 176
e 28 181
e 28 184
e 28 185
e 28 188
e 28 197
e 28 198
e 28 199
e 28 217
e 28 219
e 28 225
e 28 229
e 28 235
e 28 242
e 28 244
e 28 245
e 29 32
e 29 45
e 29 48
e 29 49
e 29 56
e 29 59
e 29 63
e 29 64
e 29 67
e 29 70
e 29 72
e 29 74
e 29 77
e 29 81
e 29 82
e 29 89
e 29 92
e 29 94
e 29 95
e 29 97
e 29 98
e 29 102
e 29 103
e 29 107
e 29 110
e 29 116
e 29 122
e 29 123
e 29 127
e 29 131
e 29 136
e 29 141
e 29 144
e 29 145
e 29 146
e 29 148
e 29 152
e 29 157
e 29 158
e 29 167
e 29 168
e 29 169
e 29 172
e 29 174
e 29 176
e 29 177
e 29 178
e 29 180
e 29 190
e 29 194
e 29 195
e 29 202
e 29 215
e 29 240
e 30 33
e 30 34
e 30 35
e 30 36
e 30 38
e 30 42
e 30 43
e 30 45
e 30 46
e 30 50
e 30 52
e 30 53
e 30 54
e 30 56
e 30 58
e 30 59
e 30 64
e 30 67
e 30 69
e 30 71
e 30 74
e 30 84
e 30 85
e 30 88
e 30 89
e 30 91
e 30 102
e 30 108
e 30 109
e 30 110
e 30 111
e 30 117
e 30 118
e 30 121
e 30 123
e 30 124
e 30 130
e 30 131
e 30 138
e 30 140
e 30 141
e 30 145
e 30 151
e 30 157
e 30 161
e 30 162
e 30 167
e 30 173
e 30 175
e 30 181
e 30 182
e 30 183
e 30 204
e 30 208
e 30 212
e 30 213
e 30 214
e 30 220
e 30 222
e 30 225
e 30 227
e 30 232
e 30 244
e 30 245
e 31 32
e 31 33
e 31 34
e 31 36
e 31 41
e 31 46
e 31 48
e 31 49
e 31 50
e 31 52
e 31 58
e 31 59
e 31 61
e 31 65
e 31 70
e 31 74
e 31 75
e 31 77
e 31 80
e 31 85
e 31 88
e 31 92
e 31 94
e 31 95
e 31 100
e 31 104
e 31 106
e 31 114
e 31 115
e 31 123
e 31 125
e 31 128
e 31 132
e 31 148
e 31 149
e 31 154
e 31 157
e 31 161
e 31 165
e 31 166
e 31 170
e 31 194
e 31 199
e 31 202
e 31 212
e 31 213
e 31 218
e 31 222
e 31 235
e 31 238
e 31 242
e 32 33
e 32 37
e 32 38
e 32 39
e 32 41
e 32 44
e 32 50
e 32 52
e 32 53
e 32 57
e 32 60
e 32 62
e 32 66
e 32 67
e 32 68
e 32 69
e 32 74
e 32 77
e 32 78
e 32 81
e 32 93
e 32 96
e 32 99
e 32 100
e 32 105
e 32 113
e 32 120
e 32 123
e 32 124
e 32 128
e 32 134
e 32 138
e 32 139
e 32 149
e 32 153
e 32 156
e 32 170
e 32 173
e 32 175
e 32 178
e 32 180
e 32 182
e 32 188
e 32 191
e 32 206
e 32 213
e 32 234
e 33 34
e 33 35
e 33 36
e 33 37
e 33 39
e 33 40
e 33 42
e 33 43
e 33 44
e 33 47
e 33 53
e 33 54
e 33 55
e 33 59
e 33 68
e 33 73
e 33 77
e 33 78
e 33 80
e 33 83
e 33 85
e 33 87
e 33 95
e 33 96
e 33 97
e 33 98
e 33 99
e 33 102
e 33 104
e 33 107
e 33 115
e 33 116
e 33 124
e 33 133
e 33 138
e 33 144
e 33 149
e 33 153
e 33 160
e 33 161
e 33 192
e 33 206
e 33 207
e 33 226
e 33 230
e 33 231
e 33 234
e 33 243
e 33 247
e 34 36
e 34 39
e 34 48
e 34 50
e 34 54
e 34 58
e 34 65
e 34 68
e 34 81
e 34 86
e 34 87
e 34 89
e 34 91
e 34 94
e 34 97
e 34 99
e 34 104
e 34 105
e 34 110
e 34 111
e 34 118
e 34 122
e 34 132
e 34 133
e 34 141
e 34 144
e 34 146
e 34 150
e 34 166
e 34 175
e 34 189
e 34 198
e 34 205
e 34 210
e 34 220
e 34 223
e 34 225
e 34 228
e 34 234
e 34 236
e 34 240
e 35 36
e 35 37
e 35 39
e 35 43
e 35 52
e 35 53
e 35 54
e 35 55
e 35 56
e 35 58
e 35 62
e 35 65
e 35 71
e 35 73
e 35 77
e 35 79
e 35 86
e 35 98
e 35 107
e 35 114
e 35 117
e 35 118
e 35 120
e 35 121
e 35 131
e 35 150
e 35 151
e 35 155
e 35 159
e 35 161
e 35 162
e 35 167
e 35 171
e 35 180
e 35 183
e 35 207
e 35 211
e 35 221
e 35 226
e 35 227
e 35 232
e 35 240
e 35 243
e 36 38
e 36 39
e 36 41
e 36 44
e 36 47
e 36 48
e 36 49
e 36 51
e 36 52
e 36 53
e 36 54
e 36 55
e 36 59
e 36 61
e 36 62
e 36 64
e 36 65
e 36 67
e 36 69
e 36 71
e 36 74
e 36 103
e 36 106
e 36 107
e 36 109
e 36 116
e 36 119
e 36 129
e 36 133
e 36 151
e 36 155
e 36 159
e 36 160
e 36 175
e 36 181
e 36 184
e 36 197
e 36 206
e 36 214
e 36 222
e 36 227
e 36 239
e 36 242
e 37 40
e 37 42
e 37 43
e 37 45
e 37 46
e 37 51
e 37 57
e 37 61
e 37 69
e 37 72
e 37 75
e 37 76
e 37 80
e 37 85
e 37 89
e 37 94
e 37 96
e 37 99
e 37 104
e 37 105
e 37 108
e 37 109
e 37 113
e 37 118
e 37 122
e 37 128
e 37 143
e 37 145
e 37 146
e 37 151
e 37 152
e 37 153
e 37 172
e 37 173
e 37 181
e 37 191
e 37 198
e 37 201
e 37 213
e 37 214
e 37 216
e 37 241
e 37 243
e 38 44
e 38 55
e 38 58
e 38 59
e 38 61
e 38 110
e 38 113
e 38 121
e 38 130
e 38 159
e 38 166
e 38 168
e 38 171
e 38 173
e 38 189
e 38 211
e 38 219
e 38 231
e 38 238
e 38 241
e 38 247
e 39 44
e 39 48
e 39 50
e 39 53
e 39 55
e 39 71
e 39 72
e 39 79
e 39 80
e 39 82
e 39 90
e 39 95
e 39 99
e 39 105
e 39 106
e 39 107
e 39 121
e 39 124
e 39 126
e 39 137
e 39 149
e 39 153
e 39 168
e 39 172
e 39 176
e 39 188
e 39 213
e 39 241
e 40 44
e 40 49
e 40 53
e 40 55
e 40 62
e 40 67
e 40 72
e 40 76
e 40 83
e 40 84
e 40 88
e 40 95
e 40 104
e 40 109
e 40 112
e 40 121
e 40 124
e 40 127
e 40 129
e 40 130
e 40 135
e 40 137
e 40 141
e 40 147
e 40 150
e 40 169
e 40 174
e 40 193
e 40 201
e 40 210
e 40 218
e 40 220
e 40 222
e 40 225
e 40 229
e 40 235
e 40 238
e 40 239
e 40 245
e 40 246
e 41 43
e 41 53
e 41 57
e 41 66
e 41 67
e 41 68
e 41 77
e 41 78
e 41 81
e 41 84
e 41 87
e 41 88
e 41 96
e 41 100
e 41 101
e 41 102
e 41 105
e 41 106
e 41 109
e 41 116
e 41 122
e 41 128
e 41 131
e 41 135
e 41 137
e 41 144
e 41 146
e 41 156
e 41 159
e 41 178
e 41 182
e 41 183
e 41 201
e 41 207
e 41 212
e 42 47
e 42 48
e 42 62
e 42 67
e 42 74
e 42 79
e 42 83
e 42 88
e 42 89
e 42 101
e 42 107
e 42 114
e 42 123
e 42 124
e 42 125
e 42 132
e 42 137
e 42 140
e 42 141
e 42 148
e 42 152
e 42 159
e 42 161
e 42 201
e 42 208
e 42 229
e 42 241
e 43 44
e 43 48
e 43 53
e 43 55
e 43 61
e 43 64
e 43 66
e 43 68
e 43 72
e 43 73
e 43 75
e 43 84
e 43 86
e 43 96
e 43 97
e 43 99
e 43 103
e 43 104
e 43 105
e 43 113
e 43 114
e 43 126
e 43 142
e 43 144
e 43 145
e 43 149
e 43 157
e 43 186
e 43 196
e 43 198
e 43 210
e 43 213
e 43 225
e 43 230
e 43 235
e 43 239
e 44 46
e 44 48
e 44 50
e 44 53
e 44 75
e 44 78
e 44 80
e 44 82
e 44 83
e 44 88
e 44 114
e 44 147
e 44 148
e 44 153
e 44 154
e 44 157
e 44 159
e 44 164
e 44 176
e 44 189
e 44 197
e 44 218
e 44 222
e 44 229
e 44 243
e 45 46
e 45 49
e 45 51
e 45 54
e 45 58
e 45 63
e 45 64
e 45 65
e 45 71
e 45 75
e 45 77
e 45 85
e 45 94
e 45 97
e 45 131
e 45 136
e 45 139
e 45 140
e 45 150
e 45 166
e 45 177
e 45 184
e 45 185
e 45 200
e 45 212
e 45 219
e 45 221
e 45 228
e 45 229
e 45 238
e 45 243
e 46 51
e 46 54
e 46 55
e 46 59
e 46 69
e 46 71
e 46 81
e 46 103
e 46 105
e 46 123
e 46 145
e 46 154
e 46 167
e 46 170
e 46 173
e 46 176
e 46 184
e 46 221
e 46 242
e 46 245
e 47 51
e 47 67
e 47 68
e 47 70
e 47 71
e 47 74
e 47 80
e 47 83
e 47 88
e 47 91
e 47 93
e 47 109
e 47 112
e 47 122
e 47 124
e 47 129
e 47 155
e 47 161
e 47 172
e 47 177
e 47 187
e 47 193
e 47 203
e 47 205
e 47 225
e 47 231
e 47 235
e 48 51
e 48 56
e 48 57
e 48 63
e 48 65
e 48 66
e 48 69
e 48 76
e 48 82
e 48 84
e 48 88
e 48 92
e 48 95
e 48 102
e 48 105
e 48 115
e 48 141
e 48 142
e 48 157
e 48 160
e 48 165
e 48 192
e 48 194
e 48 215
e 49 50
e 49 52
e 49 56
e 49 59
e 49 70
e 49 71
e 49 101
e 49 104
e 49 111
e 49 120
e 49 132
e 49 140
e 49 144
e 49 181
e 49 203
e 49 209
e 49 211
e 49 233
e 50 53
e 50 59
e 50 62
e 50 63
e 50 80
e 50 90
e 50 95
e 50 96
e 50 104
e 50 112
e 50 115
e 50 118
e 50 120
e 50 122
e 50 124
e 50 126
e 50 129
e 50 151
e 50 162
e 50 171
e 50 177
e 50 180
e 50 200
e 50 224
e 50 237
e 51 56
e 51 65
e 51 66
e 51 67
e 51 70
e 51 74
e 51 75
e 51 77
e 51 79
e 51 87
e 51 90
e 51 92
e 51 102
e 51 111
e 51 124
e 51 127
e 51 131
e 51 147
e 51 159
e 51 178
e 51 191
e 51 193
e 51 199
e 51 200
e 51 205
e 51 221
e 51 229
e 52 55
e 52 60
e 52 63
e 52 65
e 52 73
e 52 77
e 52 78
e 52 84
e 52 85
e 52 94
e 52 102
e 52 103
e 52 108
e 52 112
e 52 122
e 52 125
e 52 151
e 52 154
e 52 171
e 52 179
e 52 182
e 52 196
e 52 205
e 52 214
e 52 230
e 52 242
e 53 56
e 53 62
e 53 63
e 53 65
e 53 75
e 53 76
e 53 79
e 53 82
e 53 92
e 53 99
e 53 100
e 53 103
e 53 115
e 53 118
e 53 138
e 53 140
e 53 148
e 53 152
e 53 159
e 53 161
e 53 162
e 53 174
e 53 186
e 53 189
e 53 194
e 53 196
e 53 198
e 53 203
e 53 244
e 54 56
e 54 57
e 54 60
e 54 61
e 54 65
e 54 81
e 54 83
e 54 91
e 54 108
e 54 112
e 54 144
e 54 155
e 54 160
e 54 170
e 54 173
e 54 185
e 54 197
e 54 199
e 54 211
e 54 223
e 54 230
e 54 246
e 55 66
e 55 67
e 55 77
e 55 79
e 55 91
e 55 116
e 55 123
e 55 124
e 55 130
e 55 134
e 55 135
e 55 152
e 55 201
e 55 210
e 55 212
e 55 227
e 56 77
e 56 97
e 56 101
e 56 129
e 56 133
e 56 135
e 56 142
e 56 144
e 56 157
e 56 163
e 56 180
e 56 184
e 56 191
e 56 198
e 56 226
e 56 247
e 57 60
e 57 64
e 57 69
e 57 71
e 57 78
e 57 83
e 57 91
e 57 92
e 57 101
e 57 106
e 57 107
e 57 125
e 57 139
e 57 148
e 57 149
e 57 152
e 57 182
e 57 184
e 57 193
e 57 195
e 57 222
e 57 228
e 57 232
e 58 61
e 58 66
e 58 82
e 58 95
e 58 98
e 58 104
e 58 110
e 58 112
e 58 118
e 58 128
e 58 130
e 58 134
e 58 136
e 58 149
e 58 152
e 58 174
e 58 188
e 58 205
e 59 64
e 59 66
e 59 83
e 59 84
e 59 89
e 59 95
e 59 100
e 59 109
e 59 124
e 59 135
e 59 138
e 59 139
e 59 156
e 59 167
e 59 186
e 59 190
e 59 202
e 59 221
e 59 223
e 59 239
e 60 64
e 60 65
e 60 66
e 60 76
e 60 81
e 60 88
e 60 90
e 60 92
e 60 107
e 60 164
e 60 166
e 60 168
e 60 182
e 60 200
e 60 207
e 60 210
e 60 238
e 60 239
e 61 68
e 61 69
e 61 73
e 61 78
e 61 105
e 61 108
e 61 120
e 61 123
e 61 127
e 61 128
e 61 134
e 61 148
e 61 180
e 61 181
e 61 191
e 61 201
e 61 202
e 61 220
e 61 221
e 61 225
e 61 242
e 61 247
e 62 66
e 62 70
e 62 75
e 62 86
e 62 92
e 62 93
e 62 95
e 62 97
e 62 112
e 62 114
e 62 117
e 62 122
e 62 126
e 62 134
e 62 135
e 62 137
e 62 163
e 62 164
e 62 183
e 62 196
e 62 198
e 62 208
e 62 229
e 62 230
e 63 72
e 63 76
e 63 79
e 63 82
e 63 84
e 63 87
e 63 88
e 63 116
e 63 121
e 63 125
e 63 155
e 63 167
e 63 178
e 63 179
e 63 183
e 63 188
e 63 190
e 63 194
e 63 195
e 63 200
e 63 209
e 63 216
e 63 231
e 63 233
e 64 68
e 64 70
e 64 71
e 64 72
e 64 76
e 64 79
e 64 92
e 64 95
e 64 101
e 64 116
e 64 119
e 64 120
e 64 138
e 64 146
e 64 160
e 64 166
e 64 178
e 64 181
e 64 185
e 64 187
e 64 198
e 64 199
e 64 208
e 64 209
e 64 210
e 64 241
e 65 67
e 65 70
e 65 78
e 65 81
e 65 87
e 65 94
e 65 99
e 65 101
e 65 125
e 65 151
e 65 152
e 65 168
e 65 174
e 65 185
e 65 223
e 65 224
e 65 225
e 65 240
e 65 243
e 65 245
e 66 70
e 66 75
e 66 82
e 66 85
e 66 88
e 66 103
e 66 112
e 66 114
e 66 120
e 66 134
e 66 135
e 66 143
e 66 153
e 66 171
e 66 173
e 66 197
e 66 199
e 66 205
e 66 210
e 66 211
e 66 215
e 66 234
e 66 247
e 67 80
e 67 88
e 67 142
e 67 151
e 67 192
e 67 214
e 67 228
e 68 73
e 68 81
e 68 101
e 68 108
e 68 109
e 68 118
e 68 119
e 68 142
e 68 157
e 68 171
e 68 175
e 68 207
e 68 211
e 69 76
e 69 99
e 69 100
e 69 104
e 69 116
e 69 117
e 69 141
e 69 145
e 69 154
e 69 176
e 69 181
e 69 188
e 69 189
e 69 212
e 69 218
e 69 236
e 70 74
e 70 80
e 70 82
e 70 86
e 70 93
e 70 99
e 70 104
e 70 106
e 70 117
e 70 133
e 70 135
e 70 137
e 70 143
e 70 156
e 70 161
e 70 169
e 70 184
e 70 189
e 70 191
e 70 192
e 70 213
e 71 79
e 71 81
e 71 94
e 71 102
e 71 110
e 71 116
e 71 124
e 71 136
e 71 139
e 71 155
e 71 171
e 71 176
e 71 177
e 71 219
e 71 246
e 72 73
e 72 89
e 72 95
e 72 97
e 72 101
e 72 111
e 72 126
e 72 127
e 72 176
e 72 189
e 72 197
e 72 204
e 72 209
e 72 233
e 73 84
e 73 86
e 73 87
e 73 91
e 73 98
e 73 117
e 73 132
e 73 134
e 73 147
e 73 154
e 73 177
e 73 180
e 73 193
e 73 197
e 73 243
e 74 94
e 74 98
e 74 111
e 74 120
e 74 129
e 74 136
e 74 150
e 74 168
e 74 183
e 74 194
e 74 197
e 74 232
e 75 80
e 75 98
e 75 160
e 75 206
e 76 96
e 76 102
e 76 103
e 76 107
e 76 134
e 76 135
e 76 137
e 76 138
e 76 141
e 76 146
e 76 166
e 76 180
e 76 207
e 76 234
e 76 239
e 77 79
e 77 95
e 77 97
e 77 98
e 77 106
e 77 117
e 77 135
e 77 144
e 77 165
e 77 177
e 77 196
e 77 198
e 77 209
e 77 229
e 77 235
e 78 85
e 78 94
e 78 96
e 78 102
e 78 106
e 78 125
e 78 130
e 78 131
e 78 149
e 78 151
e 78 153
e 78 162
e 78 173
e 78 203
e 78 208
e 78 216
e 78 223
e 78 230
e 78 236
e 78 243
e 79 85
e 79 86
e 79 100
e 79 115
e 79 117
e 79 126
e 79 139
e 79 142
e 79 145
e 79 165
e 79 191
e 79 197
e 79 210
e 79 215
e 80 84
e 80 89
e 80 96
e 80 115
e 80 121
e 80 126
e 80 135
e 80 154
e 80 196
e 80 203
e 80 204
e 80 235
e 81 90
e 81 111
e 81 119
e 81 122
e 81 124
e 81 125
e 81 129
e 81 138
e 81 141
e 81 148
e 81 166
e 81 182
e 81 186
e 81 202
e 81 213
e 81 224
e 81 229
e 81 232
e 81 236
e 82 94
e 82 101
e 82 127
e 82 138
e 82 139
e 82 160
e 82 172
e 82 199
e 82 232
e 82 237
e 83 86
e 83 89
e 83 103
e 83 104
e 83 125
e 83 152
e 83 158
e 83 167
e 83 170
e 83 174
e 83 178
e 83 179
e 83 212
e 83 219
e 83 240
e 84 85
e 84 86
e 84 92
e 84 100
e 84 101
e 84 104
e 84 113
e 84 119
e 84 120
e 84 142
e 84 149
e 84 159
e 84 172
e 84 173
e 84 178
e 84 188
e 84 194
e 84 217
e 84 241
e 84 242
e 85 86
e 85 87
e 85 92
e 85 143
e 85 153
e 85 167
e 85 185
e 85 193
e 85 201
e 85 216
e 85 222
e 85 223
e 85 231
e 86 91
e 86 133
e 86 180
e 86 200
e 86 220
e 87 107
e 87 108
e 87 116
e 87 125
e 87 129
e 87 144
e 87 175
e 87 212
e 87 215
e 87 221
e 88 91
e 88 128
e 88 185
e 88 187
e 88 204
e 88 206
e 88 217
e 88 220
e 89 90
e 89 98
e 89 102
e 89 103
e 89 118
e 89 154
e 89 218
e 89 234
e 89 238
e 90 91
e 90 93
e 90 96
e 90 102
e 90 108
e 90 149
e 90 182
e 90 188
e 90 191
e 90 197
e 90 232
e 91 97
e 91 104
e 91 105
e 91 113
e 91 121
e 91 122
e 91 124
e 91 147
e 91 153
e 91 156
e 91 159
e 91 161
e 91 178
e 91 179
e 91 189
e 91 192
e 91 194
e 91 212
e 92 112
e 92 119
e 92 122
e 92 132
e 92 139
e 92 140
e 92 145
e 92 179
e 92 183
e 92 186
e 92 190
e 92 204
e 92 237
e 92 242
e 93 100
e 93 102
e 93 109
e 93 112
e 93 115
e 93 125
e 93 137
e 93 145
e 93 147
e 93 167
e 93 177
e 93 178
e 93 181
e 93 199
e 93 203
e 93 221
e 94 98
e 94 106
e 94 111
e 94 126
e 94 127
e 94 129
e 94 132
e 94 143
e 94 158
e 94 174
e 94 190
e 94 210
e 94 217
e 94 225
e 94 226
e 94 233
e 95 101
e 95 129
e 95 131
e 95 139
e 95 154
e 95 164
e 95 166
e 95 178
e 95 185
e 95 192
e 95 218
e 95 244
e 96 108
e 96 110
e 96 111
e 96 116
e 96 117
e 96 118
e 96 120
e 96 130
e 96 146
e 96 159
e 96 176
e 96 191
e 96 203
e 96 223
e 96 226
e 96 228
e 96 232
e 96 234
e 96 235
e 96 244
e 97 99
e 97 102
e 97 133
e 97 152
e 97 169
e 97 206
e 97 219
e 98 142
e 98 148
e 98 164
e 98 165
e 98 187
e 98 191
e 98 195
e 98 196
e 98 201
e 98 206
e 98 211
e 98 227
e 99 109
e 99 140
e 99 163
e 99 165
e 99 168
e 99 195
e 99 203
e 99 207
e 99 226
e 99 232
e 99 233
e 100 132
e 100 133
e 100 136
e 100 144
e 100 150
e 100 156
e 100 160
e 100 193
e 100 197
e 100 231
e 101 103
e 101 152
e 101 153
e 101 158
e 101 171
e 101 175
e 101 203
e 101 215
e 101 218
e 101 226
e 101 246
e 101 247
e 102 103
e 102 108
e 102 117
e 102 121
e 102 130
e 102 150
e 102 156
e 102 160
e 102 165
e 102 169
e 102 191
e 102 198
e 102 206
e 102 215
e 102 221
e 102 241
e 103 109
e 103 138
e 103 146
e 103 150
e 103 158
e 103 170
e 103 190
e 103 202
e 103 212
e 104 106
e 104 110
e 104 120
e 104 131
e 104 165
e 104 191
e 104 197
e 104 216
e 104 222
e 104 226
e 104 230
e 104 239
e 104 246
e 105 108
e 105 113
e 105 127
e 105 131
e 105 132
e 105 135
e 105 143
e 105 145
e 105 148
e 105 151
e 105 164
e 105 198
e 105 213
e 106 108
e 106 116
e 106 131
e 106 134
e 106 143
e 106 145
e 106 147
e 106 155
e 106 177
e 106 193
e 106 205
e 106 215
e 106 238
e 107 112
e 107 113
e 107 148
e 107 173
e 107 184
e 107 191
e 107 208
e 107 227
e 108 137
e 108 151
e 108 164
e 108 186
e 108 216
e 108 223
e 108 241
e 109 111
e 109 114
e 109 133
e 109 141
e 109 146
e 109 151
e 109 154
e 109 165
e 109 168
e 109 175
e 109 211
e 109 217
e 109 246
e 110 115
e 110 126
e 110 163
e 110 221
e 110 234
e 111 114
e 111 143
e 111 161
e 111 177
e 111 192
e 111 194
e 111 197
e 111 247
e 112 117
e 112 123
e 112 127
e 112 158
e 112 168
e 112 179
e 112 195
e 112 199
e 112 226
e 113 123
e 113 127
e 113 143
e 113 148
e 113 153
e 113 155
e 113 167
e 113 190
e 113 198
e 113 200
e 113 204
e 113 217
e 113 226
e 113 246
e 114 127
e 114 135
e 114 156
e 114 157
e 114 183
e 114 219
e 114 230
e 115 120
e 115 142
e 115 149
e 115 166
e 115 172
e 115 183
e 115 222
e 115 240
e 115 244
e 116 124
e 116 145
e 116 158
e 116 191
e 116 200
e 116 225
e 117 137
e 117 161
e 117 166
e 117 168
e 117 200
e 117 220
e 117 238
e 118 120
e 118 140
e 118 223
e 118 239
e 118 242
e 119 159
e 119 169
e 119 170
e 119 176
e 119 177
e 119 184
e 119 187
e 119 201
e 119 213
e 119 221
e 119 223
e 119 235
e 120 121
e 120 136
e 120 152
e 120 169
e 120 170
e 120 172
e 120 179
e 120 181
e 120 184
e 120 195
e 120 204
e 121 133
e 121 134
e 121 137
e 121 144
e 121 163
e 121 164
e 121 215
e 122 137
e 122 138
e 122 149
e 122 152
e 122 173
e 122 176
e 122 231
e 122 237
e 123 127
e 123 133
e 123 159
e 123 181
e 123 198
e 123 205
e 123 223
e 123 237
e 124 128
e 124 175
e 124 208
e 124 217
e 125 127
e 125 142
e 125 163
e 125 168
e 125 185
e 125 187
e 125 203
e 125 216
e 125 217
e 125 228
e 125 236
e 125 238
e 125 241
e 126 134
e 126 157
e 126 186
e 126 196
e 126 197
e 127 134
e 127 147
e 127 165
e 127 202
e 127 207
e 128 143
e 128 151
e 128 158
e 128 170
e 128 202
e 128 232
e 128 236
e 128 243
e 129 172
e 129 177
e 129 183
e 129 213
e 129 243
e 130 134
e 130 143
e 130 157
e 130 162
e 130 170
e 130 201
e 130 220
e 130 224
e 131 154
e 131 172
e 131 196
e 131 224
e 132 133
e 132 138
e 132 147
e 132 150
e 132 171
e 132 179
e 132 187
e 132 209
e 132 216
e 132 224
e 132 229
e 132 239
e 133 139
e 133 147
e 133 153
e 133 160
e 133 162
e 133 174
e 133 182
e 133 185
e 133 192
e 133 206
e 133 223
e 133 225
e 133 228
e 133 229
e 133 232
e 134 155
e 134 156
e 134 185
e 134 198
e 134 239
e 134 242
e 135 136
e 135 138
e 135 156
e 135 162
e 135 170
e 135 178
e 135 179
e 135 182
e 135 190
e 135 216
e 136 142
e 136 164
e 136 166
e 136 169
e 136 193
e 136 224
e 136 233
e 136 245
e 137 150
e 137 154
e 137 160
e 137 185
e 137 191
e 137 214
e 137 216
e 137 242
e 138 180
e 138 188
e 138 194
e 138 208
e 139 169
e 139 171
e 139 172
e 139 177
e 140 149
e 140 150
e 140 154
e 140 155
e 140 165
e 140 171
e 140 182
e 140 186
e 140 189
e 140 216
e 140 239
e 140 240
e 140 242
e 141 161
e 142 151
e 142 153
e 142 166
e 142 179
e 142 180
e 142 208
e 142 213
e 143 156
e 143 160
e 143 177
e 143 193
e 143 209
e 143 226
e 143 234
e 144 176
e 144 193
e 144 217
e 144 237
e 144 240
e 145 156
e 145 158
e 145 179
e 145 204
e 145 208
e 145 235
e 146 148
e 146 149
e 146 215
e 146 231
e 147 157
e 147 168
e 147 173
e 147 182
e 147 219
e 147 235
e 148 245
e 149 162
e 149 192
e 149 195
e 150 177
e 150 187
e 150 205
e 150 206
e 150 219
e 150 220
e 150 238
e 151 155
e 151 162
e 151 220
e 151 236
e 151 243
e 152 154
e 152 200
e 152 203
e 152 228
e 152 231
e 152 234
e 153 158
e 153 171
e 153 201
e 154 176
e 155 164
e 155 179
e 155 180
e 156 163
e 156 165
e 156 182
e 156 214
e 156 218
e 156 227
e 156 243
e 157 162
e 157 179
e 157 193
e 157 198
e 157 202
e 157 210
e 157 219
e 157 230
e 158 176
e 158 188
e 158 230
e 159 164
e 159 184
e 159 207
e 159 221
e 159 226
e 160 162
e 160 166
e 160 167
e 160 186
e 160 200
e 161 162
e 161 165
e 161 173
e 161 204
e 162 180
e 162 187
e 162 220
e 162 222
e 162 234
e 163 174
e 163 183
e 163 196
e 163 230
e 163 243
e 164 188
e 165 168
e 165 173
e 165 174
e 165 181
e 165 239
e 166 206
e 166 221
e 166 232
e 167 170
e 167 181
e 167 184
e 167 238
e 167 245
e 168 171
e 168 184
e 168 196
e 168 204
e 168 224
e 168 236
e 168 241
e 168 243
e 169 202
e 169 228
e 169 235
e 170 173
e 170 233
e 170 243
e 171 180
e 171 201
e 172 183
e 172 233
e 172 237
e 174 187
e 174 189
e 174 230
e 175 180
e 175 187
e 175 198
e 175 201
e 175 202
e 175 244
e 176 236
e 177 193
e 177 196
e 177 201
e 177 202
e 177 208
e 177 231
e 177 240
e 179 183
e 179 204
e 179 213
e 179 223
e 179 227
e 179 239
e 179 240
e 180 206
e 181 200
e 182 188
e 182 214
e 182 217
e 182 245
e 183 199
e 183 224
e 183 236
e 185 193
e 185 215
e 185 223
e 186 197
e 186 222
e 187 192
e 187 209
e 188 191
e 188 207
e 189 195
e 189 214
e 189 218
e 189 231
e 189 246
e 190 208
e 190 224
e 191 218
e 191 233
e 192 194
e 192 211
e 193 236
e 194 195
e 194 205
e 195 213
e 195 239
e 196 200
e 196 234
e 196 240
e 197 221
e 198 209
e 198 214
e 199 200
e 199 209
e 199 210
e 199 232
e 200 209
e 200 219
e 200 245
e 201 217
e 201 231
e 201 247
e 202 219
e 202 246
e 203 208
e 203 211
e 204 210
e 204 227
e 205 219
e 205 238
e 206 227
e 207 214
e 207 233
e 208 210
e 208 215
e 210 238
e 211 217
e 211 247
e 212 215
e 212 217
e 212 225
e 212 228
e 213 225
e 214 234
e 214 236
e 214 247
e 215 240
e 216 232
e 217 220
e 217 233
e 218 237
e 220 231
e 221 232
e 221 233
e 221 237
e 222 228
e 222 239
e 223 228
e 224 226
e 224 241
e 226 238
e 227 243
e 227 247
e 230 241
e 232 241
e 245 247
